50

99 29 316
98 11 422
98 47 365
97 42 398
96 6 321
90 29 369
88 22 343
86 33 338
82 20 388
82 6 471
80 32 306
79 31 296
76 32 228
76 21 236
76 24 445
74 19 467
69 33 383
67 30 206
66 31 464
64 32 390
62 26 453
59 28 283
55 9 308
52 3 352
51 15 213
51 7 202
50 17 280
49 11 190
44 8 280
43 14 456
41 3 310
41 21 412
41 12 211
41 12 203
41 3 362
37 11 268
35 2 450
33 17 231
32 2 330
32 13 247
31 16 248
31 7 428
31 4 469
30 7 412
29 11 398
23 3 382
23 1 200
22 7 119
20 9 252
20 5 268
